(set-logic BV) (define-fun origCir ((n263 Bool) (n271 Bool) (n218 Bool) (n251 Bool) (n248 Bool) (n215 Bool)) Bool (xor (xor n271 n263) (and (and (and n251 n248) n218) n215))) (synth-fun skel ((n263 Bool) (n271 Bool) (n218 Bool) (n251 Bool) (n248 Bool) (n215 Bool)) Bool) (declare-var n263 Bool) (declare-var n271 Bool) (declare-var n218 Bool) (declare-var n251 Bool) (declare-var n248 Bool) (declare-var n215 Bool) (constraint (= (origCir n263 n271 n218 n251 n248 n215) (skel n263 n271 n218 n251 n248 n215))) (check-synth)
